Maximize

29.5 b0 + 15.5 b1 + 18.5 b2 + 33.0 b3 + 36.0 b4 + 6 b5 + 18.5 b6.v0 + 18.5 b6.v1 + 7 b7.v0 + 7 b7.v1 + 23.5 b8 + 17.5 b9 + 29.0 b10.v0 + 33.0 b10.v1 + 18.5 b11 + 23.5 b12 + 18.5 b13.v0 + 18.5 b13.v1 + 18.5 b13.v2 + 10 b14 + 173.0 b15 + 6 b16 + 10 b17 + 69.0 b18 + 98.0 b19 + 6 b20 + 6 b21 + 19.5 b22.v0 + 15.5 b22.v1 + 19.5 b22.v2 + 33.0 b23 + 6 b24 + 22.5 b25 + 108.0 b26 + 24.5 b27 + 6 b28.v0 + 6 b28.v1 + 22.5 b29 + 151.5 b30 + 47 b31.v0 + 47 b31.v1 + 7 b32 + 108.0 b33.v0 + 108.0 b33.v1 + 38 b34.v0 + 38 b34.v1 + 23 b35.v0 + 21 b35.v1 + 31.0 b36.v0 + 31.0 b36.v1 + 105.5 b37 + 37.0 b38 + 32.0 b39.v0 + 36.0 b39.v1 + 32.0 b39.v2 + 32.0 b39.v3 + 32.0 b39.v4 + 32.0 b39.v5 + 36.0 b39.v6 + 32.0 b40 + 22.5 b41 + 7 b42 + 49.5 b43 + 38.0 b44 + 49.5 b45 + 37.0 b46 + 33.0 b47 + 48.5 b48.v0 + 48.5 b48.v1 + 6 b49 + 6 b50 + 37.0 b51 + 37.0 b52 + 6 b53.v0 + 6 b53.v1 + 171.0 b54 + 45.0 b55 + 143.0 b56.v0 + 143.0 b56.v1 + 31 b57 + 12 b58.v0 + 10 b58.v1 + 28.5 b59 + 144.5 b60.v0 + 144.5 b60.v1 + 6 b61 + 32.0 b62 + 22.5 b63 + 3 b64 + 19.5 b65 + 56.5 b66 + 23.5 b67 + 172.5 b68 + 70.5 b69 + 1060.0 b70 + 36.0 b71 + 32.0 b72 + 19.5 b73 + 23.5 b74 + 18.5 b75.v0 + 18.5 b75.v1 + 18.5 b75.v2 + 7 b76 + 24.5 b77 + 20.5 b78 + 18.5 b79.v0 + 18.5 b79.v1 + 10 b80 + 53.5 b81 + 23.5 b82 + 144.5 b83 + 49.5 b84 + 33.0 b85 + 24.5 b86.v0 + 24.5 b86.v1 + 35.0 b87 + 181.5 b88.v0 + 179.5 b88.v1 + 43.5 b89.v0 + 43.5 b89.v1 + 10 b90 + 19 b91 + 13.5 b92.v0 + 13.5 b92.v1 + 13.5 b93 + 12.5 x31_0.m + 12.5 x31_1.m + 12.5 x31_2.m + 12.5 x32_0.m + 12.5 x33_0.m + 12.5 x33_1.m + 12.5 x34_0.m + 12.5 x34_1.m + 12.5 x34_2.m + 12.5 x35_0.m + 12.5 x35_1.m + 12.5 x53_0.m + 12.5 x54_0.m + 12.5 x54_1.m + 12.5 x54_2.m + 12.5 x54_3.m + 12.5 x54_4.m + 12.5 x54_5.m + 12.5 x54_6.m + 12.5 x55_0.m + 12.5 x56_0.m + 12.5 x56_1.m + 12.5 x56_2.m + 12.5 x56_3.m + 12.5 x57_0.m + 12.5 x57_1.m + 12.5 x58_0.m + 12.5 x89_0.m + 12.5 x91_0.m + 12.5 dr31_0.m + 12.5 dr31_1.m + 12.5 dr31_2.m + 12.5 dr31_3.m + 12.5 dr31_4.m + 12.5 dr31_5.m + 12.5 dr31_6.m + 12.5 dr33_0.m + 12.5 dr33_1.m + 12.5 dr33_2.m + 12.5 dr33_3.m + 12.5 dr33_4.m + 12.5 dr33_5.m + 12.5 dr33_6.m + 12.5 dr34_0.m + 12.5 dr34_1.m + 12.5 dr34_2.m + 12.5 dr34_3.m + 12.5 dr34_4.m + 12.5 dr34_5.m + 12.5 dr35_0.m + 12.5 dr35_1.m + 12.5 dr35_2.m + 12.5 dr53_0.m + 12.5 dr54_0.m + 12.5 dr54_1.m + 12.5 dr54_2.m + 12.5 dr54_3.m + 12.5 dr54_4.m + 12.5 dr54_5.m + 12.5 dr54_6.m + 12.5 dr54_7.m + 12.5 dr54_8.m + 12.5 dr54_9.m + 12.5 dr54_10.m + 12.5 dr54_11.m + 12.5 dr54_12.m + 12.5 dr54_13.m + 12.5 dr54_14.m + 12.5 dr54_15.m + 12.5 dr54_16.m + 12.5 dr54_17.m + 12.5 dr54_18.m + 12.5 dr54_19.m + 12.5 dr54_20.m + 12.5 dr55_0.m + 12.5 dr55_1.m + 12.5 dr56_0.m + 12.5 dr56_1.m + 12.5 dr56_2.m + 12.5 dr56_3.m + 12.5 dr56_4.m + 12.5 dr56_5.m + 12.5 dr56_6.m + 12.5 dr56_7.m + 12.5 dr56_8.m + 12.5 dr57_0.m + 12.5 dr57_1.m + 12.5 dr57_2.m + 12.5 dr57_3.m + 12.5 dr57_4.m + 12.5 dr57_5.m + 12.5 dr57_6.m + 12.5 dr58_0.m + 12.5 dr59_0.m + 12.5 dr89_0.m + 12.5 dr89_1.m + 12.5 dr89_2.m + 12.5 dr90_0.m + 12.5 dr91_0.m + 12.5 dr91_1.m + 12.5 dr91_2.m


Subject to

\ === tcfg constraints ===
dSta_0 = 1
b0 - dSta_0 = 0
b0 - d0_1 = 0
b1 - d0_1 = 0
b1 - d1_2 = 0
b2 - d1_2 = 0
b2 - d2_3 = 0
b3 - d2_3 = 0
b3 - d3_4 = 0
b4 - d3_4 = 0
b4 - d4_6 - d4_5 = 0
b5 - d4_5 = 0
b5 - d5_93 - d5_6 = 0
b6 - d4_6 - d5_6 = 0
b6 - d6_7 = 0
b7 - d6_7 - d93_7 = 0
b7 - d7_8 = 0
b8 - d7_8 = 0
b8 - d8_10 - d8_9 = 0
b9 - d8_9 = 0
b9 - d9_10 = 0
b10 - d8_10 - d9_10 = 0
b10 - d10_13 - d10_11 = 0
b11 - d10_11 = 0
b11 - d11_13 - d11_12 = 0
b12 - d11_12 = 0
b12 - d12_15 - d12_13 = 0
b13 - d10_13 - d11_13 - d12_13 = 0
b13 - d13_14 = 0
b14 - d13_14 = 0
b15 - d12_15 = 0
b15 - d15_18 - d15_16 = 0
b16 - d15_16 = 0
b16 - d16_17 = 0
b17 - d16_17 = 0
b18 - d15_18 = 0
b18 - d18_19 = 0
b19 - d18_19 = 0
b19 - d19_86 - d19_20 = 0
b20 - d19_20 = 0
b20 - d20_86 - d20_21 = 0
b21 - d20_21 = 0
b21 - d21_22 = 0
b22 - d92_22 - d90_22 - d21_22 = 0
b22 - d22_23 = 0
b23 - d22_23 = 0
b23 - d23_26 - d23_24 = 0
b24 - d23_24 = 0
b24 - d24_25 = 0
b25 - d24_25 = 0
b26 - d23_26 = 0
b26 - d26_28 - d26_27 = 0
b27 - d26_27 = 0
b27 - d27_30 - d27_28 = 0
b28 - d26_28 - d27_28 = 0
b28 - d28_29 = 0
b29 - d28_29 = 0
b30 - d27_30 = 0
b30 - d30_36 - d30_31 = 0
b31 - d30_31 - d35_31 = 0
b31 - d31_35 - d31_32 = 0
b32 - d31_32 = 0
b32 - d32_34 - d32_33 = 0
b33 - d33_33 - d32_33 = 0
b33 - d33_33 - d33_34 = 0
b34 - d33_34 - d32_34 = 0
b34 - d34_35 = 0
b35 - d31_35 - d34_35 = 0
b35 - d35_31 - d35_36 = 0
b36 - d30_36 - d35_36 = 0
b36 - d36_37 = 0
b37 - d36_37 = 0
b37 - d37_42 - d37_38 = 0
b38 - d37_38 = 0
b38 - d38_39 = 0
b39 - d84_39 - d81_39 - d51_39 - d38_39 - d43_39 - d45_39 - d83_39 = 0
b39 - d39_40 = 0
b40 - d39_40 = 0
b40 - d40_41 = 0
b41 - d40_41 = 0
b42 - d37_42 = 0
b42 - d42_44 - d42_43 = 0
b43 - d42_43 = 0
b43 - d43_39 = 0
b44 - d42_44 = 0
b44 - d44_46 - d44_45 = 0
b45 - d44_45 = 0
b45 - d45_39 = 0
b46 - d44_46 = 0
b46 - d46_85 - d46_47 = 0
b47 - d46_47 = 0
b47 - d47_48 = 0
b48 - d85_48 - d47_48 = 0
b48 - d48_82 - d48_49 = 0
b49 - d48_49 = 0
b49 - d49_52 - d49_50 = 0
b50 - d49_50 = 0
b50 - d50_51 = 0
b51 - d50_51 = 0
b51 - d51_39 = 0
b52 - d49_52 = 0
b52 - d52_60 - d52_53 = 0
b53 - d52_53 - d59_53 = 0
b53 - d53_54 = 0
b54 - d53_54 = 0
b54 - d54_56 - d54_55 = 0
b55 - d54_55 = 0
b55 - d55_56 = 0
b56 - d54_56 - d55_56 = 0
b56 - d56_58 - d56_57 = 0
b57 - d56_57 = 0
b57 - d57_58 = 0
b58 - d56_58 - d57_58 = 0
b58 - d58_59 = 0
b59 - d58_59 = 0
b59 - d59_53 - d59_60 = 0
b60 - d52_60 - d59_60 = 0
b60 - d60_81 - d60_61 = 0
b61 - d60_61 = 0
b61 - d61_62 = 0
b62 - d61_62 = 0
b62 - d62_63 = 0
b63 - d62_63 = 0
b63 - d63_64 = 0
b64 - d63_64 = 0
b64 - d64_65 = 0
b65 - d64_65 = 0
b65 - d65_66 = 0
b66 - d65_66 = 0
b66 - d66_75 - d66_67 = 0
b67 - d66_67 = 0
b67 - d67_75 - d67_68 = 0
b68 - d67_68 = 0
b68 - d68_75 - d68_69 = 0
b69 - d68_69 = 0
b69 - d69_70 = 0
b70 - d69_70 = 0
b70 - d70_71 = 0
b71 - d70_71 = 0
b71 - d71_72 = 0
b72 - d71_72 = 0
b72 - d72_73 = 0
b73 - d72_73 = 0
b73 - d73_74 = 0
b74 - d73_74 = 0
b75 - d66_75 - d67_75 - d68_75 = 0
b75 - d75_76 = 0
b76 - d75_76 = 0
b76 - d76_77 = 0
b77 - d76_77 = 0
b77 - d77_79 - d77_78 = 0
b78 - d77_78 = 0
b78 - d78_79 = 0
b79 - d77_79 - d78_79 = 0
b79 - d79_80 = 0
b80 - d79_80 = 0
b81 - d60_81 = 0
b81 - d81_39 = 0
b82 - d48_82 = 0
b82 - d82_84 - d82_83 = 0
b83 - d82_83 = 0
b83 - d83_39 = 0
b84 - d82_84 = 0
b84 - d84_39 = 0
b85 - d46_85 = 0
b85 - d85_48 = 0
b86 - d19_86 - d20_86 = 0
b86 - d86_88 - d86_87 = 0
b87 - d86_87 = 0
b87 - d87_88 = 0
b88 - d86_88 - d87_88 = 0
b88 - d88_92 - d88_89 = 0
b89 - d88_89 - d91_89 = 0
b89 - d89_91 - d89_90 = 0
b90 - d89_90 = 0
b90 - d90_22 = 0
b91 - d89_91 = 0
b91 - d91_89 - d91_92 = 0
b92 - d88_92 - d91_92 = 0
b92 - d92_22 = 0
b93 - d5_93 = 0
b93 - d93_7 = 0


\ === header constraints ===
b31 - 61 d30_31 <= 0
b33 - 72 d32_33 <= 0
b89 - 47 d88_89 <= 0
b53 - 64 d52_53 <= 0


\ === context constraints ===
b6 - b6.v0 - b6.v1 = 0
b6.v0 - d4_6 = 0
b6.v1 - d5_6 = 0
b7 - b7.v0 - b7.v1 = 0
b7.v0 - d6_7 = 0
b7.v1 - d93_7 = 0
b10 - b10.v0 - b10.v1 = 0
b10.v0 - d8_10 = 0
b10.v1 - d9_10 = 0
b13 - b13.v0 - b13.v1 - b13.v2 = 0
b13.v0 - d10_13 = 0
b13.v1 - d11_13 = 0
b13.v2 - d12_13 = 0
b22 - b22.v0 - b22.v1 - b22.v2 = 0
b22.v0 - d92_22 = 0
b22.v1 - d90_22 = 0
b22.v2 - d21_22 = 0
b28 - b28.v0 - b28.v1 = 0
b28.v0 - d26_28 = 0
b28.v1 - d27_28 = 0
b31 - b31.v0 - b31.v1 = 0
b31.v0 - d30_31 = 0
b31.v1 - d35_31 = 0
b33 - b33.v0 - b33.v1 = 0
b33.v0 - d33_33 = 0
b33.v1 - d32_33 = 0
b34 - b34.v0 - b34.v1 = 0
b34.v0 - d33_34 = 0
b34.v1 - d32_34 = 0
b35 - b35.v0 - b35.v1 = 0
b35.v0 - d31_35 = 0
b35.v1 - d34_35 = 0
b36 - b36.v0 - b36.v1 = 0
b36.v0 - d30_36 = 0
b36.v1 - d35_36 = 0
b39 - b39.v0 - b39.v1 - b39.v2 - b39.v3 - b39.v4 - b39.v5 - b39.v6 = 0
b39.v0 - d84_39 = 0
b39.v1 - d81_39 = 0
b39.v2 - d51_39 = 0
b39.v3 - d38_39 = 0
b39.v4 - d43_39 = 0
b39.v5 - d45_39 = 0
b39.v6 - d83_39 = 0
b48 - b48.v0 - b48.v1 = 0
b48.v0 - d85_48 = 0
b48.v1 - d47_48 = 0
b53 - b53.v0 - b53.v1 = 0
b53.v0 - d52_53 = 0
b53.v1 - d59_53 = 0
b56 - b56.v0 - b56.v1 = 0
b56.v0 - d54_56 = 0
b56.v1 - d55_56 = 0
b58 - b58.v0 - b58.v1 = 0
b58.v0 - d56_58 = 0
b58.v1 - d57_58 = 0
b60 - b60.v0 - b60.v1 = 0
b60.v0 - d52_60 = 0
b60.v1 - d59_60 = 0
b75 - b75.v0 - b75.v1 - b75.v2 = 0
b75.v0 - d66_75 = 0
b75.v1 - d67_75 = 0
b75.v2 - d68_75 = 0
b79 - b79.v0 - b79.v1 = 0
b79.v0 - d77_79 = 0
b79.v1 - d78_79 = 0
b86 - b86.v0 - b86.v1 = 0
b86.v0 - d19_86 = 0
b86.v1 - d20_86 = 0
b88 - b88.v0 - b88.v1 = 0
b88.v0 - d86_88 = 0
b88.v1 - d87_88 = 0
b89 - b89.v0 - b89.v1 = 0
b89.v0 - d88_89 = 0
b89.v1 - d91_89 = 0
b92 - b92.v0 - b92.v1 = 0
b92.v0 - d88_92 = 0
b92.v1 - d91_92 = 0


\ === inst cache constraints ===
b31 - x31_0.h - x31_0.m = 0
x31_0.m <= 1
b31 - x31_1.h - x31_1.m = 0
x31_1.m <= 1
b31 - x31_2.h - x31_2.m = 0
x31_2.m <= 1
b32 - x32_0.h - x32_0.m = 0
x32_0.m <= 1
b33 - x33_0.h - x33_0.m = 0
x33_0.m <= 1
b33 - x33_1.h - x33_1.m = 0
x33_1.m <= 1
b34 - x34_0.h - x34_0.m = 0
x34_0.m <= 1
b34 - x34_1.h - x34_1.m = 0
x34_1.m <= 1
b34 - x34_2.h - x34_2.m = 0
x34_2.m <= 1
b35 - x35_0.h - x35_0.m = 0
x35_0.m <= 1
b35 - x35_1.h - x35_1.m = 0
x35_1.m <= 1
b53 - x53_0.h - x53_0.m = 0
x53_0.m <= 1
b54 - x54_0.h - x54_0.m = 0
x54_0.m <= 1
b54 - x54_1.h - x54_1.m = 0
x54_1.m <= 1
b54 - x54_2.h - x54_2.m = 0
x54_2.m <= 1
b54 - x54_3.h - x54_3.m = 0
x54_3.m <= 1
b54 - x54_4.h - x54_4.m = 0
x54_4.m <= 1
b54 - x54_5.h - x54_5.m = 0
x54_5.m <= 1
b54 - x54_6.h - x54_6.m = 0
x54_6.m <= 1
b55 - x55_0.h - x55_0.m = 0
x55_0.m <= 1
b56 - x56_0.h - x56_0.m = 0
x56_0.m <= 1
b56 - x56_1.h - x56_1.m = 0
x56_1.m <= 1
b56 - x56_2.h - x56_2.m = 0
x56_2.m <= 1
b56 - x56_3.h - x56_3.m = 0
x56_3.m <= 1
b57 - x57_0.h - x57_0.m = 0
x57_0.m <= 1
b57 - x57_1.h - x57_1.m = 0
x57_1.m <= 1
b58 - x58_0.h - x58_0.m = 0
x58_0.m <= 1
b89 - x89_0.h - x89_0.m = 0
x89_0.m <= 1
b91 - x91_0.h - x91_0.m = 0
x91_0.m <= 1


\ === data cache constraints ===
b31 - dr31_0.h - dr31_0.m = 0
dr31_0.m <= 1
b31 - dr31_1.h - dr31_1.m = 0
dr31_1.m <= 1
b31 - dr31_2.h - dr31_2.m = 0
dr31_2.m <= 1
b31 - dr31_3.h - dr31_3.m = 0
dr31_3.m <= 1
b31 - dr31_4.h - dr31_4.m = 0
dr31_4.m <= 1
b31 - dr31_5.h - dr31_5.m = 0
dr31_5.m <= 1
b31 - dr31_6.h - dr31_6.m = 0
dr31_6.m <= 1
b33 - dr33_0.h - dr33_0.m = 0
dr33_0.m <= 1
b33 - dr33_1.h - dr33_1.m = 0
dr33_1.m <= 1
b33 - dr33_2.h - dr33_2.m = 0
dr33_2.m <= 1
b33 - dr33_3.h - dr33_3.m = 0
dr33_3.m <= 1
b33 - dr33_4.h - dr33_4.m = 0
dr33_4.m <= 1
b33 - dr33_5.h - dr33_5.m = 0
dr33_5.m <= 1
b33 - dr33_6.h - dr33_6.m = 0
dr33_6.m <= 1
b34 - dr34_0.h - dr34_0.m = 0
dr34_0.m <= 1
b34 - dr34_1.h - dr34_1.m = 0
dr34_1.m <= 1
b34 - dr34_2.h - dr34_2.m = 0
dr34_2.m <= 1
b34 - dr34_3.h - dr34_3.m = 0
dr34_3.m <= 1
b34 - dr34_4.h - dr34_4.m = 0
dr34_4.m <= 1
b34 - dr34_5.h - dr34_5.m = 0
dr34_5.m <= 1
b35 - dr35_0.h - dr35_0.m = 0
dr35_0.m <= 1
b35 - dr35_1.h - dr35_1.m = 0
dr35_1.m <= 1
b35 - dr35_2.h - dr35_2.m = 0
dr35_2.m <= 1
b53 - dr53_0.h - dr53_0.m = 0
dr53_0.m <= 1
b54 - dr54_0.h - dr54_0.m = 0
dr54_0.m <= 1
b54 - dr54_1.h - dr54_1.m = 0
dr54_1.m <= 1
b54 - dr54_2.h - dr54_2.m = 0
dr54_2.m <= 1
b54 - dr54_3.h - dr54_3.m = 0
dr54_3.m <= 1
b54 - dr54_4.h - dr54_4.m = 0
dr54_4.m <= 1
b54 - dr54_5.h - dr54_5.m = 0
dr54_5.m <= 1
b54 - dr54_6.h - dr54_6.m = 0
dr54_6.m <= 1
b54 - dr54_7.h - dr54_7.m = 0
dr54_7.m <= 1
b54 - dr54_8.h - dr54_8.m = 0
dr54_8.m <= 1
b54 - dr54_9.h - dr54_9.m = 0
dr54_9.m <= 1
b54 - dr54_10.h - dr54_10.m = 0
dr54_10.m <= 1
b54 - dr54_11.h - dr54_11.m = 0
dr54_11.m <= 1
b54 - dr54_12.h - dr54_12.m = 0
dr54_12.m <= 1
b54 - dr54_13.h - dr54_13.m = 0
dr54_13.m <= 1
b54 - dr54_14.h - dr54_14.m = 0
dr54_14.m <= 1
b54 - dr54_15.h - dr54_15.m = 0
dr54_15.m <= 1
b54 - dr54_16.h - dr54_16.m = 0
dr54_16.m <= 1
b54 - dr54_17.h - dr54_17.m = 0
dr54_17.m <= 1
b54 - dr54_18.h - dr54_18.m = 0
dr54_18.m <= 1
b54 - dr54_19.h - dr54_19.m = 0
dr54_19.m <= 1
b54 - dr54_20.h - dr54_20.m = 0
dr54_20.m <= 1
b55 - dr55_0.h - dr55_0.m = 0
dr55_0.m <= 1
b55 - dr55_1.h - dr55_1.m = 0
dr55_1.m <= 1
b56 - dr56_0.h - dr56_0.m = 0
dr56_0.m <= 1
b56 - dr56_1.h - dr56_1.m = 0
dr56_1.m <= 1
b56 - dr56_2.h - dr56_2.m = 0
dr56_2.m <= 1
b56 - dr56_3.h - dr56_3.m = 0
dr56_3.m <= 1
b56 - dr56_4.h - dr56_4.m = 0
dr56_4.m <= 1
b56 - dr56_5.h - dr56_5.m = 0
dr56_5.m <= 1
b56 - dr56_6.h - dr56_6.m = 0
dr56_6.m <= 1
b56 - dr56_7.h - dr56_7.m = 0
dr56_7.m <= 1
b56 - dr56_8.h - dr56_8.m = 0
dr56_8.m <= 1
b57 - dr57_0.h - dr57_0.m = 0
dr57_0.m <= 1
b57 - dr57_1.h - dr57_1.m = 0
dr57_1.m <= 1
b57 - dr57_2.h - dr57_2.m = 0
dr57_2.m <= 1
b57 - dr57_3.h - dr57_3.m = 0
dr57_3.m <= 1
b57 - dr57_4.h - dr57_4.m = 0
dr57_4.m <= 1
b57 - dr57_5.h - dr57_5.m = 0
dr57_5.m <= 1
b57 - dr57_6.h - dr57_6.m = 0
dr57_6.m <= 1
b58 - dr58_0.h - dr58_0.m = 0
dr58_0.m <= 1
b59 - dr59_0.h - dr59_0.m = 0
dr59_0.m <= 1
b89 - dr89_0.h - dr89_0.m = 0
dr89_0.m <= 1
b89 - dr89_1.h - dr89_1.m = 0
dr89_1.m <= 1
b89 - dr89_2.h - dr89_2.m = 0
dr89_2.m <= 1
b90 - dr90_0.h - dr90_0.m = 0
dr90_0.m <= 1
b91 - dr91_0.h - dr91_0.m = 0
dr91_0.m <= 1
b91 - dr91_1.h - dr91_1.m = 0
dr91_1.m <= 1
b91 - dr91_2.h - dr91_2.m = 0
dr91_2.m <= 1


\ === infeasible path constraints ===
x0 <= 1
x1 <= 1
x2 <= 1
x3 <= 1
x4 <= 1
x5 <= 1
x6 <= 1
x0 + x1 + x2 + x3 + x4 + x5 + x6 <= 6
d36_37 - 99999 x0 <= 0
d37_42 - 99999 x1 <= 0
d42_44 - 99999 x2 <= 0
d44_46 - 99999 x3 <= 0
d46_85 - 99999 x4 <= 0
d85_48 - 99999 x5 <= 0
d48_49 - 99999 x6 <= 0


x7 <= 1
x8 <= 1
x9 <= 1
x10 <= 1
x11 <= 1
x12 <= 1
x13 <= 1
x7 + x8 + x9 + x10 + x11 + x12 + x13 <= 6
d36_37 - 99999 x7 <= 0
d37_42 - 99999 x8 <= 0
d42_44 - 99999 x9 <= 0
d44_46 - 99999 x10 <= 0
d46_47 - 99999 x11 <= 0
d47_48 - 99999 x12 <= 0
d48_49 - 99999 x13 <= 0


Generals
x7
x8
x9
x10
x11
x12
x13
x0
x1
x2
x3
x4
x5
x6


b0
b1
b2
b3
b4
b5
b6
b6.v0
b6.v1
b7
b7.v0
b7.v1
b8
b9
b10
b10.v0
b10.v1
b11
b12
b13
b13.v0
b13.v1
b13.v2
b14
b15
b16
b17
b18
b19
b20
b21
b22
b22.v0
b22.v1
b22.v2
b23
b24
b25
b26
b27
b28
b28.v0
b28.v1
b29
b30
b31
b31.v0
b31.v1
b32
b33
b33.v0
b33.v1
b34
b34.v0
b34.v1
b35
b35.v0
b35.v1
b36
b36.v0
b36.v1
b37
b38
b39
b39.v0
b39.v1
b39.v2
b39.v3
b39.v4
b39.v5
b39.v6
b40
b41
b42
b43
b44
b45
b46
b47
b48
b48.v0
b48.v1
b49
b50
b51
b52
b53
b53.v0
b53.v1
b54
b55
b56
b56.v0
b56.v1
b57
b58
b58.v0
b58.v1
b59
b60
b60.v0
b60.v1
b61
b62
b63
b64
b65
b66
b67
b68
b69
b70
b71
b72
b73
b74
b75
b75.v0
b75.v1
b75.v2
b76
b77
b78
b79
b79.v0
b79.v1
b80
b81
b82
b83
b84
b85
b86
b86.v0
b86.v1
b87
b88
b88.v0
b88.v1
b89
b89.v0
b89.v1
b90
b91
b92
b92.v0
b92.v1
b93
d0_1
d1_2
d2_3
d3_4
d4_5
d4_6
d5_6
d5_93
d6_7
d7_8
d8_9
d8_10
d9_10
d10_11
d10_13
d11_12
d11_13
d12_13
d12_15
d13_14
d15_16
d15_18
d16_17
d18_19
d19_20
d19_86
d20_21
d20_86
d21_22
d22_23
d23_24
d23_26
d24_25
d26_27
d26_28
d27_28
d27_30
d28_29
d30_31
d30_36
d31_32
d31_35
d32_33
d32_34
d33_33
d33_34
d34_35
d35_31
d35_36
d36_37
d37_38
d37_42
d38_39
d39_40
d40_41
d42_43
d42_44
d43_39
d44_45
d44_46
d45_39
d46_47
d46_85
d47_48
d48_49
d48_82
d49_50
d49_52
d50_51
d51_39
d52_53
d52_60
d53_54
d54_55
d54_56
d55_56
d56_57
d56_58
d57_58
d58_59
d59_53
d59_60
d60_61
d60_81
d61_62
d62_63
d63_64
d64_65
d65_66
d66_67
d66_75
d67_68
d67_75
d68_69
d68_75
d69_70
d70_71
d71_72
d72_73
d73_74
d75_76
d76_77
d77_78
d77_79
d78_79
d79_80
d81_39
d82_83
d82_84
d83_39
d84_39
d85_48
d86_87
d86_88
d87_88
d88_89
d88_92
d89_90
d89_91
d90_22
d91_89
d91_92
d92_22
d93_7
dSta_0
dr31_0.h
dr31_0.m
dr31_1.h
dr31_1.m
dr31_2.h
dr31_2.m
dr31_3.h
dr31_3.m
dr31_4.h
dr31_4.m
dr31_5.h
dr31_5.m
dr31_6.h
dr31_6.m
dr33_0.h
dr33_0.m
dr33_1.h
dr33_1.m
dr33_2.h
dr33_2.m
dr33_3.h
dr33_3.m
dr33_4.h
dr33_4.m
dr33_5.h
dr33_5.m
dr33_6.h
dr33_6.m
dr34_0.h
dr34_0.m
dr34_1.h
dr34_1.m
dr34_2.h
dr34_2.m
dr34_3.h
dr34_3.m
dr34_4.h
dr34_4.m
dr34_5.h
dr34_5.m
dr35_0.h
dr35_0.m
dr35_1.h
dr35_1.m
dr35_2.h
dr35_2.m
dr53_0.h
dr53_0.m
dr54_0.h
dr54_0.m
dr54_1.h
dr54_1.m
dr54_2.h
dr54_2.m
dr54_3.h
dr54_3.m
dr54_4.h
dr54_4.m
dr54_5.h
dr54_5.m
dr54_6.h
dr54_6.m
dr54_7.h
dr54_7.m
dr54_8.h
dr54_8.m
dr54_9.h
dr54_9.m
dr54_10.h
dr54_10.m
dr54_11.h
dr54_11.m
dr54_12.h
dr54_12.m
dr54_13.h
dr54_13.m
dr54_14.h
dr54_14.m
dr54_15.h
dr54_15.m
dr54_16.h
dr54_16.m
dr54_17.h
dr54_17.m
dr54_18.h
dr54_18.m
dr54_19.h
dr54_19.m
dr54_20.h
dr54_20.m
dr55_0.h
dr55_0.m
dr55_1.h
dr55_1.m
dr56_0.h
dr56_0.m
dr56_1.h
dr56_1.m
dr56_2.h
dr56_2.m
dr56_3.h
dr56_3.m
dr56_4.h
dr56_4.m
dr56_5.h
dr56_5.m
dr56_6.h
dr56_6.m
dr56_7.h
dr56_7.m
dr56_8.h
dr56_8.m
dr57_0.h
dr57_0.m
dr57_1.h
dr57_1.m
dr57_2.h
dr57_2.m
dr57_3.h
dr57_3.m
dr57_4.h
dr57_4.m
dr57_5.h
dr57_5.m
dr57_6.h
dr57_6.m
dr58_0.h
dr58_0.m
dr59_0.h
dr59_0.m
dr89_0.h
dr89_0.m
dr89_1.h
dr89_1.m
dr89_2.h
dr89_2.m
dr90_0.h
dr90_0.m
dr91_0.h
dr91_0.m
dr91_1.h
dr91_1.m
dr91_2.h
dr91_2.m
x31_0.h
x31_0.m
x31_1.h
x31_1.m
x31_2.h
x31_2.m
x32_0.h
x32_0.m
x33_0.h
x33_0.m
x33_1.h
x33_1.m
x34_0.h
x34_0.m
x34_1.h
x34_1.m
x34_2.h
x34_2.m
x35_0.h
x35_0.m
x35_1.h
x35_1.m
x53_0.h
x53_0.m
x54_0.h
x54_0.m
x54_1.h
x54_1.m
x54_2.h
x54_2.m
x54_3.h
x54_3.m
x54_4.h
x54_4.m
x54_5.h
x54_5.m
x54_6.h
x54_6.m
x55_0.h
x55_0.m
x56_0.h
x56_0.m
x56_1.h
x56_1.m
x56_2.h
x56_2.m
x56_3.h
x56_3.m
x57_0.h
x57_0.m
x57_1.h
x57_1.m
x58_0.h
x58_0.m
x89_0.h
x89_0.m
x91_0.h
x91_0.m


End
\ total cons: 542    total vars: 475